language ESSENCE' 1.0
$ loaded file: carseqdata/csplib-instance-67
letting numcars=200
letting numclasses=26
letting numoptions=5
letting optMax=[1, 2, 1, 2, 1]
letting windowSize=[2, 3, 3, 5, 5]
letting numberPerClass=[5, 2, 1, 3, 3, 15, 11, 6, 3, 4, 5, 7, 5, 23, 4, 36, 1, 10, 1, 7, 21, 3, 4, 14, 5, 1]
letting optionsRequired=[[0, 1, 1, 1, 0], [0, 0, 1, 1, 1], [1, 1, 1, 0, 1], [1, 0, 1, 0, 1], [1, 1, 0, 1, 0], [0, 1, 0, 1, 0], [0, 1, 1, 0, 0], [1, 0, 0, 0, 1], [0, 1, 0, 1, 1], [0, 1, 1, 0, 1], [1, 1, 1, 0, 0], [1, 0, 0, 1, 0], [0, 1, 0, 0, 1], [0, 0, 0, 1, 0], [1, 0, 1, 1, 0], [0, 1, 0, 0, 0], [0, 0, 0, 1, 1], [0, 0, 1, 0, 0], [0, 1, 1, 1, 1], [1, 0, 1, 0, 0], [1, 0, 0, 0, 0], [1, 1, 1, 1, 0], [1, 1, 0, 0, 1], [1, 0, 0, 0, 0], [0, 0, 0, 0, 1], [1, 0, 0, 0, 0]]
